#######################
Slurm job id: 17497813_300
Running on machine: p71
Running cmd: /nfs/shared/static-builds/gurobi1202 SOFTMEMLIMIT=125 MIPFocus=2 Presolve=1 TimeLimit=300 seed=9 /nfs/models/miplib2010/k16x240.mps.bz2
#######################
Set parameter TimeLimit to value 300
Set parameter SoftMemLimit to value 125
Set parameter MIPFocus to value 2
Set parameter LogFile to value 1202-MIPFocus2-Presolve1-TimeLimit300-k16x240-9.log
Set parameter Presolve to value 1
Set parameter Seed to value 9
Using license file /opt/gurobi/gurobi.lic

Gurobi Optimizer version 12.0.2 build v12.0.2rc0 (linux64 - "Ubuntu 22.04.4 LTS")
Copyright (c) 2025, Gurobi Optimization, LLC

Read MPS format model from file /nfs/models/miplib2010/k16x240.mps.bz2
Reading time = 0.00 seconds
k16x240: 256 rows, 480 columns, 960 nonzeros

Using Gurobi shared library /nfs/shared/static-builds/gurobi1202

CPU model: Intel(R) Xeon(R) E-2388G CPU @ 3.20GHz, instruction set [SSE2|AVX|AVX2|AVX512]
Thread count: 8 physical cores, 16 logical processors, using up to 16 threads

Non-default parameters:
TimeLimit  300
SoftMemLimit  125
MIPFocus  2
Presolve  1
Seed  9

Optimize a model with 256 rows, 480 columns and 960 nonzeros
Model fingerprint: 0x4e80885f
Variable types: 240 continuous, 240 integer (240 binary)
Coefficient statistics:
  Matrix range     [1e+00, 1e+03]
  Objective range  [1e+00, 1e+03]
  Bounds range     [1e+00, 1e+03]
  RHS range        [4e+00, 4e+02]
Found heuristic solution: objective 21896.000000
Presolve time: 0.00s
Presolved: 256 rows, 480 columns, 960 nonzeros
Variable types: 240 continuous, 240 integer (240 binary)

Root relaxation: objective 2.769838e+03, 51 iterations, 0.00 seconds (0.00 work units)

    Nodes    |    Current Node    |     Objective Bounds      |     Work
 Expl Unexpl |  Obj  Depth IntInf | Incumbent    BestBd   Gap | It/Node Time

     0     0 2769.83800    0   14 21896.0000 2769.83800  87.4%     -    0s
H    0     0                    11359.000000 2769.83800  75.6%     -    0s
H    0     0                    11195.000000 2769.83800  75.3%     -    0s
H    0     0                    11088.000000 2769.83800  75.0%     -    0s
H    0     0                    11074.000000 8116.87580  26.7%     -    0s
     0     0 8116.87580    0   26 11074.0000 8116.87580  26.7%     -    0s
H    0     0                    10916.000000 8161.01413  25.2%     -    0s
     0     0 8588.30479    0   25 10916.0000 8588.30479  21.3%     -    0s
H    0     0                    10806.000000 8613.92228  20.3%     -    0s
     0     0 8613.92228    0   22 10806.0000 8613.92228  20.3%     -    0s
     0     0 8720.59081    0   23 10806.0000 8720.59081  19.3%     -    0s
H    0     0                    10748.000000 8724.13618  18.8%     -    0s
     0     0 8841.67029    0   27 10748.0000 8841.67029  17.7%     -    0s
     0     0 8854.70970    0   41 10748.0000 8854.70970  17.6%     -    0s
     0     0 8856.63912    0   42 10748.0000 8856.63912  17.6%     -    0s
     0     0 9013.13744    0   46 10748.0000 9013.13744  16.1%     -    0s
     0     0 9075.71355    0   39 10748.0000 9075.71355  15.6%     -    0s
     0     0 9079.80680    0   38 10748.0000 9079.80680  15.5%     -    0s
     0     0 9099.70445    0   30 10748.0000 9099.70445  15.3%     -    0s
     0     0 9104.44958    0   35 10748.0000 9104.44958  15.3%     -    0s
     0     0 9122.67527    0   26 10748.0000 9122.67527  15.1%     -    0s
     0     0 9124.32739    0   33 10748.0000 9124.32739  15.1%     -    0s
     0     0 9126.30342    0   29 10748.0000 9126.30342  15.1%     -    0s
     0     0 9126.62597    0   29 10748.0000 9126.62597  15.1%     -    0s
     0     2 9127.07568    0   29 10748.0000 9127.07568  15.1%     -    0s
H   38    58                    10746.000000 9208.92035  14.3%  59.7    0s
H   59    66                    10674.000000 9208.92035  13.7%  54.7    0s
 35982 11569 10334.3969   25   18 10674.0000 10086.6485  5.50%  23.9    5s
 79220 15070     cutoff   33      10674.0000 10281.6328  3.68%  25.0   10s
 125608  1780 10627.8964   27    8 10674.0000 10525.3898  1.39%  24.4   15s

Cutting planes:
  Lift-and-project: 13
  Cover: 93
  Implied bound: 37
  Dual implied bound: 17
  MIR: 212
  Flow cover: 283
  Flow path: 41
  Inf proof: 3
  Zero half: 6
  Network: 46
  Relax-and-lift: 3

Explored 129556 nodes (3111181 simplex iterations) in 15.16 seconds (20.72 work units)
Thread count was 16 (of 16 available processors)

Solution count 10: 10674 10746 10748 ... 21896

Optimal solution found (tolerance 1.00e-04)
Best objective 1.067400000000e+04, best bound 1.067400000000e+04, gap 0.0000%
